(set-logic ALL)
(set-option :produce-models true)
(declare-sort BoundSet 0)
(declare-sort UnboundSet 0)
(set-option :finite-model-find true)
(declare-fun IsGolfing (BoundSet) Bool)
(declare-fun IsGoingBowling (BoundSet) Bool)
(declare-fun IsBowling (BoundSet) Bool)
(assert (not (=> (exists ((b BoundSet)) (IsGolfing b)) (exists ((c BoundSet)) (exists ((d BoundSet)) (and (IsGoingBowling c) (IsBowling d)))))))
(check-sat)
(get-model)